cases/pglib-opf/pglib_opf_case30_fsr.m
ipopt
ACP
[info | PowerModels]: extending matpower format with data: areas 3x3

******************************************************************************
This program contains Ipopt, a library for large-scale nonlinear optimization.
 Ipopt is released as open source code under the Eclipse Public License (EPL).
         For more information visit http://projects.coin-or.org/Ipopt
******************************************************************************

This is Ipopt version 3.13.2, running with linear solver mumps.
NOTE: Other linear solvers might be more efficient (see Ipopt documentation).

Number of nonzeros in equality constraint Jacobian...:      999
Number of nonzeros in inequality constraint Jacobian.:      328
Number of nonzeros in Lagrangian Hessian.............:     1812

Total number of variables............................:      236
                     variables with only lower bounds:        0
                variables with lower and upper bounds:      206
                     variables with only upper bounds:        0
Total number of equality constraints.................:      225
Total number of inequality constraints...............:      164
        inequality constraints with only lower bounds:       41
   inequality constraints with lower and upper bounds:        0
        inequality constraints with only upper bounds:      123

iter    objective    inf_pr   inf_du lg(mu)  ||d||  lg(rg) alpha_du alpha_pr  ls
   0  7.4358840e+00 3.00e-01 1.62e+01  -1.0 0.00e+00    -  0.00e+00 0.00e+00   0
   1  5.6874008e+02 1.47e-02 4.75e+01  -1.0 4.82e-01    -  2.03e-02 1.00e+00h  1
   2  5.7417916e+02 1.20e-02 5.62e+00  -1.0 1.15e-01    -  1.00e+00 8.83e-01h  1
   3  5.7442963e+02 8.04e-03 5.98e+01  -1.0 1.23e-01    -  9.74e-01 3.83e-01h  1
   4  5.7578015e+02 1.90e-03 3.68e+00  -1.0 1.05e-01    -  1.00e+00 1.00e+00h  1
   5  5.7630108e+02 1.28e-04 4.16e-01  -1.0 2.60e-02    -  1.00e+00 1.00e+00h  1
   6  5.7603330e+02 3.41e-05 3.99e-01  -1.7 2.05e-02    -  1.00e+00 1.00e+00h  1
   7  5.7592384e+02 2.77e-05 3.27e-02  -1.7 1.08e-02    -  1.00e+00 1.00e+00h  1
   8  5.7581737e+02 1.58e-05 5.50e-02  -2.5 1.13e-02    -  1.00e+00 1.00e+00h  1
   9  5.7578497e+02 2.82e-05 5.94e-03  -2.5 8.75e-03    -  1.00e+00 1.00e+00h  1
iter    objective    inf_pr   inf_du lg(mu)  ||d||  lg(rg) alpha_du alpha_pr  ls
  10  5.7576895e+02 1.29e-05 4.42e-02  -3.8 6.20e-03    -  9.69e-01 9.58e-01h  1
  11  5.7576973e+02 1.56e-06 1.16e-04  -3.8 2.29e-03    -  1.00e+00 1.00e+00f  1
  12  5.7576888e+02 1.27e-07 1.58e-05  -5.7 6.29e-04    -  1.00e+00 1.00e+00h  1
  13  5.7576888e+02 1.23e-10 6.47e-09  -8.6 2.01e-05    -  1.00e+00 1.00e+00h  1

Number of Iterations....: 13

                                   (scaled)                 (unscaled)
Objective...............:   1.7715965538004139e+02    5.7576887998513450e+02
Dual infeasibility......:   6.4696126609730016e-09    2.1026241148162255e-08
Constraint violation....:   1.2329076648498472e-10    1.2329076648498472e-10
Complementarity.........:   4.8815047193584835e-09    1.5864890337915071e-08
Overall NLP error.......:   6.4696126609730016e-09    2.1026241148162255e-08


Number of objective function evaluations             = 14
Number of objective gradient evaluations             = 14
Number of equality constraint evaluations            = 14
Number of inequality constraint evaluations          = 14
Number of equality constraint Jacobian evaluations   = 14
Number of inequality constraint Jacobian evaluations = 14
Number of Lagrangian Hessian evaluations             = 13
Total CPU secs in IPOPT (w/o function evaluations)   =      1.294
Total CPU secs in NLP function evaluations           =      2.317

EXIT: Optimal Solution Found.
Time to Solution........:4.341356039047241
